  200  200  200
    0    0    0  200  100   50
    0    0   50  200  100   50
    0    0  100  200  100   50
    0    0  150  200  100   50
    0  100    0  200  100   50
    0  100   50  200  100   50
    0  100  100  200  100   50
    0  100  150  200  100   50
